p knf 64 141
-1 -9 -2 -10 0
-1 -17 -3 -19 0
-1 -25 -4 -28 0
-1 -33 -5 -37 0
-1 -41 -6 -46 0
-1 -49 -7 -55 0
-1 -57 -8 -64 0
-2 -10 -3 -11 0
-2 -18 -4 -20 0
-2 -26 -5 -29 0
-2 -34 -6 -38 0
-2 -42 -7 -47 0
-2 -50 -8 -56 0
-3 -11 -4 -12 0
-3 -19 -5 -21 0
-3 -27 -6 -30 0
-3 -35 -7 -39 0
-3 -43 -8 -48 0
-4 -12 -5 -13 0
-4 -20 -6 -22 0
-4 -28 -7 -31 0
-4 -36 -8 -40 0
-5 -13 -6 -14 0
-5 -21 -7 -23 0
-5 -29 -8 -32 0
-6 -14 -7 -15 0
-6 -22 -8 -24 0
-7 -15 -8 -16 0
-9 -17 -10 -18 0
-9 -25 -11 -27 0
-9 -33 -12 -36 0
-9 -41 -13 -45 0
-9 -49 -14 -54 0
-9 -57 -15 -63 0
-10 -18 -11 -19 0
-10 -26 -12 -28 0
-10 -34 -13 -37 0
-10 -42 -14 -46 0
-10 -50 -15 -55 0
-10 -58 -16 -64 0
-11 -19 -12 -20 0
-11 -27 -13 -29 0
-11 -35 -14 -38 0
-11 -43 -15 -47 0
-11 -51 -16 -56 0
-12 -20 -13 -21 0
-12 -28 -14 -30 0
-12 -36 -15 -39 0
-12 -44 -16 -48 0
-13 -21 -14 -22 0
-13 -29 -15 -31 0
-13 -37 -16 -40 0
-14 -22 -15 -23 0
-14 -30 -16 -32 0
-15 -23 -16 -24 0
-17 -25 -18 -26 0
-17 -33 -19 -35 0
-17 -41 -20 -44 0
-17 -49 -21 -53 0
-17 -57 -22 -62 0
-18 -26 -19 -27 0
-18 -34 -20 -36 0
-18 -42 -21 -45 0
-18 -50 -22 -54 0
-18 -58 -23 -63 0
-19 -27 -20 -28 0
-19 -35 -21 -37 0
-19 -43 -22 -46 0
-19 -51 -23 -55 0
-19 -59 -24 -64 0
-20 -28 -21 -29 0
-20 -36 -22 -38 0
-20 -44 -23 -47 0
-20 -52 -24 -56 0
-21 -29 -22 -30 0
-21 -37 -23 -39 0
-21 -45 -24 -48 0
-22 -30 -23 -31 0
-22 -38 -24 -40 0
-23 -31 -24 -32 0
-25 -33 -26 -34 0
-25 -41 -27 -43 0
-25 -49 -28 -52 0
-25 -57 -29 -61 0
-26 -34 -27 -35 0
-26 -42 -28 -44 0
-26 -50 -29 -53 0
-26 -58 -30 -62 0
-27 -35 -28 -36 0
-27 -43 -29 -45 0
-27 -51 -30 -54 0
-27 -59 -31 -63 0
-28 -36 -29 -37 0
-28 -44 -30 -46 0
-28 -52 -31 -55 0
-28 -60 -32 -64 0
-29 -37 -30 -38 0
-29 -45 -31 -47 0
-29 -53 -32 -56 0
-30 -38 -31 -39 0
-30 -46 -32 -48 0
-31 -39 -32 -40 0
-33 -41 -34 -42 0
-33 -49 -35 -51 0
-33 -57 -36 -60 0
-34 -42 -35 -43 0
-34 -50 -36 -52 0
-34 -58 -37 -61 0
-35 -43 -36 -44 0
-35 -51 -37 -53 0
-35 -59 -38 -62 0
-36 -44 -37 -45 0
-36 -52 -38 -54 0
-36 -60 -39 -63 0
-37 -45 -38 -46 0
-37 -53 -39 -55 0
-37 -61 -40 -64 0
-38 -46 -39 -47 0
-38 -54 -40 -56 0
-39 -47 -40 -48 0
-41 -49 -42 -50 0
-41 -57 -43 -59 0
-42 -50 -43 -51 0
-42 -58 -44 -60 0
-43 -51 -44 -52 0
-43 -59 -45 -61 0
-44 -52 -45 -53 0
-44 -60 -46 -62 0
-45 -53 -46 -54 0
-45 -61 -47 -63 0
-46 -54 -47 -55 0
-46 -62 -48 -64 0
-47 -55 -48 -56 0
-49 -57 -50 -58 0
-50 -58 -51 -59 0
-51 -59 -52 -60 0
-52 -60 -53 -61 0
-53 -61 -54 -62 0
-54 -62 -55 -63 0
-55 -63 -56 -64 0
k 41 1 2 3 4 5 6 7 8 9 10 11 12 13 14 15 16 17 18 19 20 21 22 23 24 25 26 27 28 29 30 31 32 33 34 35 36 37 38 39 40 41 42 43 44 45 46 47 48 49 50 51 52 53 54 55 56 57 58 59 60 61 62 63 64 0
